unsat
(define-fun f ((x (_ BitVec 64))) (_ BitVec 64) (let ((_let_1 (smol x))) (let ((_let_2 (bvand #b0000000000000000000000000000000000000000000000000000000000000001 x))) (im (bvand #b0000000000000000000000000000000000000000000000000000000000000001 (shesh x)) (im _let_2 _let_1 (bvnot #b0000000000000000000000000000000000000000000000000000000000000001)) (im _let_2 _let_1 (bvnot (bvxor #b0000000000000000000000000000000000000000000000000000000000000001 (ehad x))))))))
12.74user 0.02system 0:12.77elapsed 99%CPU (0avgtext+0avgdata 66412maxresident)k
16inputs+8outputs (0major+11905minor)pagefaults 0swaps
